unsat
(:added-eqs                       5276
 :arith-eq-adapter                81
 :arith-bound-propagations-lp     87
 :arith-conflicts                 416
 :arith-diseq                     1149
 :arith-fixed-eqs                 233
 :arith-gcd-calls                 45
 :arith-grobner-calls             162
 :arith-grobner-conflicts         19
 :arith-horner-calls              48
 :arith-horner-cross-nested-forms 971
 :arith-lower                     2215
 :arith-make-feasible             2763
 :arith-max-columns               133
 :arith-max-rows                  45
 :arith-nla-add-bounds            36
 :arith-nla-lemmas                210
 :arith-nla-propagate-bounds      98
 :arith-nla-propagate-eq          1460
 :arith-nra-calls                 134
 :arith-offset-eqs                62
 :arith-patches                   45
 :arith-patches-success           45
 :arith-upper                     7680
 :binary-propagations             22843
 :conflicts                       799
 :decisions                       7931
 :del-clause                      593
 :elim-unconstrained              3
 :final-checks                    312
 :max-memory                      102.74
 :memory                          33.40
 :minimized-lits                  1706
 :mk-bool-var                     616
 :mk-clause                       1050
 :mk-clause-binary                735
 :nlsat-conflicts                 7972
 :nlsat-decisions                 132
 :nlsat-propagations              84560
 :nlsat-stages                    46025
 :num-allocs                      1522592495
 :num-checks                      1
 :propagations                    30083
 :restarts                        7
 :rlimit-count                    3150078
 :sat-backjumps                   126
 :sat-conflicts                   126
 :sat-decisions                   413
 :sat-del-clause                  6
 :sat-elim-bool-vars-res          27254
 :sat-elim-literals               44
 :sat-minimized-lits              1319
 :sat-mk-clause-2ary              124923
 :sat-mk-clause-3ary              53292
 :sat-mk-clause-nary              227314
 :sat-mk-var                      79802
 :sat-propagations-2ary           58461
 :sat-propagations-nary           30780
 :sat-scc-elim-binary             310
 :sat-scc-elim-vars               56
 :sat-subs-resolution             44
 :sat-subs-resolution-dyn         40
 :sat-subsumed                    27891
 :time                            1.62
 :total-time                      1.64)
